NAME : LPS-n19-m341
COMMENT : (Lartu-Peter-Santi Plot, instance 6741 out of 39200. 19 customers.)
TYPE : CVRP
DIMENSION : 19
EDGE_WEIGHT_TYPE : EUC_2D
CAPACITY : 79
NODE_COORD_SECTION
 1 52 17
 2 84 67
 3 58 74
 4 77 83
 5 17 7
 6 68 93
 7 60 27
 8 34 51
 9 38 20
 10 75 17
 11 25 91
 12 83 50
 13 9 82
 14 10 53
 15 47 7
 16 50 91
 17 61 71
 18 10 32
 19 30 9
DEMAND_SECTION
1 0
2 42
3 62
4 54
5 61
6 68
7 76
8 1
9 6
10 34
11 36
12 64
13 15
14 46
15 11
16 51
17 6
18 13
19 19
DEPOT_SECTION
 1
 -1
EOF
